letting n =  10
letting blocks =  [[1, 3], [1, 7], [1, 9], [2, 10], [3, 2], [3, 6], [3, 7], [4, 4], [4, 7], [5, 3], [6, 6], [6, 9], [8, 7], [8, 10], [9, 4], [9, 9], [9, 10], [10, 1], [10, 5], [10, 9]]
